174	32	4	109	
17	16	15	17

0	0	0	0	0	0	3	1	2	3
1	8	3	1	5	9	2	5	22
2	8	9	10	4	7	3	4	5	6
3	5	10	8	7	9	3	4	5	7
4	9	7	2	7	6	2	8	17
5	7	8	1	7	10	1	11
6	4	1	3	10	5	2	7	11
7	6	6	5	9	6	2	9	21
8	2	3	6	2	6	2	11	20
9	1	4	10	10	4	2	10	26
10	5	5	2	6	4	1	12
11	4	3	8	1	7	1	21
12	4	3	2	10	1	1	13
13	2	2	5	4	7	1	14
14	3	1	6	3	1	1	15
15	10	4	10	9	4	1	16
16	10	10	7	3	1	1	17
17	3	9	1	2	7	1	18
18	1	10	10	5	7	1	19
19	2	8	4	9	8	2	20	25
20	9	7	3	4	3	1	22
21	2	8	5	9	5	1	23
22	4	9	6	9	9	3	24	27	28
23	10	5	6	4	7	3	24	25	26
24	9	3	2	6	3	2	29	30
25	3	9	4	10	4	2	27	30
26	7	1	7	10	6	2	27	28
27	8	2	5	8	5	1	29
28	6	3	1	5	5	2	29	30
29	10	7	1	4	9	1	31
30	8	6	5	4	9	1	31
31	0	0	0	0	0	0
